# Objective value = 3.0919962216675515e+02
x[0] 0
x[1] 1
x[2] 1
x[3] 0
x[4] 1
x[5] 9.9999982500000006e-01
x[6] 1.1984153966930687e-07
x[7] 0
x[8] 0
x[9] 0
x[10] 0
x[11] 0
x[12] 0
x[13] 0
x[14] 1
x[15] 0
x[16] 1
x[17] 0
x[18] 1
x[19] 0
x[20] 1
x[21] 1
x[22] 1
x[23] 0
x[24] 0
x[25] 1
x[26] 1
x[27] 1
x[28] 0
x[29] 0
x[30] 1
x[31] 0
x[32] 0
x[33] 0
x[34] 1
x[35] 1
x[36] 0
x[37] 0
x[38] 0
x[39] 1
x[40] 0
x[41] 0
x[42] 1
x[43] 0
x[44] 3.5956626081313932e-07
x[45] 0
x[46] 0
x[47] 1
x[48] 1
x[49] 1
x[50] 1
x[51] 1
x[52] 0
x[53] 0
x[54] 0
x[55] 0
x[56] 1
x[57] 0
x[58] 1
x[59] 1
x[60] 1
x[61] 0
x[62] 0
x[63] 0
x[64] 0
x[65] 1
x[66] 1
x[67] 0
x[68] 0
x[69] 0
x[70] 1.1910518152003569e-07
x[71] 0
x[72] 0
x[73] 0
x[74] 1
x[75] 1
x[76] 1
x[77] 0
x[78] 0
x[79] 1
x[80] 1
x[81] 0
x[82] 1
x[83] 1
x[84] 1
x[85] 1
x[86] 0
x[87] 0
x[88] 0
x[89] 0
x[90] 1
x[91] 1
x[92] 0
x[93] 1
x[94] 1
x[95] 0
x[96] 1
x[97] 9.9999988333333345e-01
x[98] 1
x[99] 1
x[100] 1
x[101] 1
x[102] 3.5977527570417176e-07
x[103] 0
x[104] 1
x[105] 0
x[106] 1.19737201299021e-07
x[107] 9.9999988000000006e-01
x[108] 0
x[109] 1
x[110] 0
x[111] 0
x[112] 1.7960832721408141e-07
x[113] 0
x[114] 1
x[115] 0
x[116] 1
x[117] 1
x[118] 0
x[119] 0
x[120] 1
x[121] 0
x[122] 1
x[123] 1
x[124] 0
x[125] 0
x[126] 1
x[127] 0
x[128] 0
x[129] 0
x[130] 1.7988968274107962e-07
x[131] 0
x[132] 0
x[133] 0
x[134] 0
x[135] 0
x[136] 0
x[137] 0
x[138] 1
x[139] 1
x[140] 0
x[141] 1
x[142] 1
x[143] 0
x[144] 1
x[145] 1
x[146] 1
x[147] 1
x[148] 0
x[149] 0
x[150] 0
x[151] 1
x[152] 1
x[153] 0
x[154] 1
x[155] 9.9999964333333358e-01
x[156] 1
x[157] 0
x[158] 0
x[159] 0
x[160] 1
x[161] 1
x[162] 0
x[163] 1
x[164] 0
x[165] 1
x[166] 1
x[167] 0
x[168] 0
x[169] 1
x[170] 0
x[171] 1
x[172] 1
x[173] 9.9999982344365057e-01
x[174] 1
x[175] 0
x[176] 1
x[177] 0
x[178] 1
x[179] 0
x[180] 3.5985581485253448e-07
x[181] 1
x[182] 1.7987070408472759e-07
x[183] 0
x[184] 1
x[185] 0
x[186] 1
x[187] 1
x[188] 0
x[189] 0
x[190] 1
x[191] 0
x[192] 1
x[193] 0
x[194] 1
x[195] 1
x[196] 0
x[197] 0
x[198] 0
x[199] 1
x[200] 1
x[201] 9.9999982333333348e-01
x[202] 1
x[203] 0
x[204] 1
x[205] 1
x[206] 1.7953350073672492e-07
x[207] 1.1988163216225668e-07
x[208] 0
x[209] 1.7973340759327056e-07
x[210] 1
x[211] 0
x[212] 1
x[213] 1
x[214] 1
x[215] 0
x[216] 1
x[217] 1
x[218] 1
x[219] 0
x[220] 1
x[221] 1
x[222] 0
x[223] 0
x[224] 1
x[225] 0
x[226] 1
x[227] 0
x[228] 1
x[229] 1
x[230] 0
x[231] 0
x[232] 1
x[233] 0
x[234] 0
x[235] 0
x[236] 0
x[237] 1
x[238] 1
x[239] 1
x[240] 0
x[241] 1
x[242] 0
x[243] 0
x[244] 1
x[245] 1.1974045530291375e-07
x[246] 0.99999964
x[247] 1
x[248] 1
x[249] 0
x[250] 1
x[251] 9.9999988000000006e-01
x[252] 1
x[253] 0
x[254] 0
x[255] 1
x[256] 1
x[257] 0
x[258] 0
x[259] 1
x[260] 0
x[261] 0
x[262] 0
x[263] 1
x[264] 0
x[265] 1.7978160490274390e-07
x[266] 0
x[267] 0
x[268] 1
x[269] 0
x[270] 9.9999988000000006e-01
x[271] 0
x[272] 1
x[273] 0
x[274] 0
x[275] 0
x[276] 0
x[277] 0
x[278] 1
x[279] 1
x[280] 1
x[281] 9.9999988333333345e-01
x[282] 1
x[283] 1
x[284] 0
x[285] 1
x[286] 1
x[287] 1.1971548889854383e-07
x[288] 1
x[289] 0
x[290] 0
x[291] 1
x[292] 0
x[293] 1
x[294] 1
x[295] 1
x[296] 0
x[297] 1
x[298] 1
x[299] 0
x[300] 0
x[301] 0
x[302] 0
x[303] 0
x[304] 0
x[305] 0
x[306] 0
x[307] 1
x[308] 1
x[309] 1
x[310] 1
x[311] 0
x[312] 0
x[313] 1
x[314] 0
x[315] 1
x[316] 0
x[317] 1
x[318] 1
x[319] 1
x[320] 1
x[321] 1
x[322] 0
x[323] 1
x[324] 0
x[325] 1
x[326] 1
x[327] 1
x[328] 1
x[329] 9.9999982000000009e-01
x[330] 1
x[331] 1
x[332] 1
x[333] 1
x[334] 0
x[335] 1
x[336] 0
x[337] 1
x[338] 0
x[339] 0
x[340] 0
x[341] 0
x[342] 0
x[343] 1
x[344] 1
x[345] 0
x[346] 1
x[347] 0
x[348] 1
x[349] 1
x[350] 1
x[351] 1
x[352] 1
x[353] 0
x[354] 3.5986127448200496e-07
x[355] 1
x[356] 0
x[357] 1
x[358] 0
x[359] 1.1949763040019097e-07
x[360] 1
x[361] 0
x[362] 1
x[363] 0
x[364] 9.9999982333333337e-01
x[365] 0
x[366] 1
x[367] 1
x[368] 0
x[369] 0
x[370] 1
x[371] 1
x[372] 0
x[373] 0
x[374] 0
x[375] 0
x[376] 1
x[377] 0
x[378] 0
x[379] 1
x[380] 0
x[381] 1
x[382] 0
x[383] 1
x[384] 1
x[385] 1
x[386] 1
x[387] 0
x[388] 0
x[389] 1.1975213922090558e-07
x[390] 1
x[391] 0
x[392] 1
x[393] 0
x[394] 9.9999982355172845e-01
x[395] 0
x[396] 1
x[397] 1
x[398] 1
x[399] 0
x[400] 0
x[401] 1
x[402] 1
x[403] 1.1940140192174427e-07
x[404] 0
x[405] 1
x[406] 0
x[407] 0
x[408] 0
x[409] 0
x[410] 0
x[411] 1
x[412] 0
x[413] 0
x[414] 1.1966915120544292e-07
x[415] 0
x[416] 0
x[417] 0
x[418] 0
x[419] 1
x[420] 0
x[421] 0
x[422] 0
x[423] 0
x[424] 1
x[425] 1
x[426] 0
x[427] 1.4269000063302069e-07
x[428] 1
x[429] 0
x[430] 1
x[431] 0
x[432] 1.7988143110643644e-07
x[433] 0
x[434] 0
x[435] 0
x[436] 9.9999988000000006e-01
x[437] 0
x[438] 0
x[439] 1
x[440] 0
x[441] 1
x[442] 1
x[443] 0
x[444] 1
x[445] 1
x[446] 1.1988375848621537e-07
x[447] 0
x[448] 1
x[449] 0
x[450] 1
x[451] 1
x[452] 0
x[453] 0
x[454] 0
x[455] 0
x[456] 0.99999982
x[457] 1
x[458] 0
x[459] 0
x[460] 0
x[461] 0
x[462] 0
x[463] 1
x[464] 1
x[465] 0
x[466] 1
x[467] 3.5983962097352834e-07
x[468] 1
x[469] 0
x[470] 0.999999882473264
x[471] 1
x[472] 9.9999982344365057e-01
x[473] 0
x[474] 0
x[475] 1.7955574636109936e-07
x[476] 0
x[477] 0
x[478] 0
x[479] 1.1978886390073202e-07
x[480] 0
x[481] 0
x[482] 1
x[483] 0
x[484] 0
x[485] 0
x[486] 0
x[487] 1
x[488] 1
x[489] 0
x[490] 1.1967266570897221e-07
x[491] 1
x[492] 0
x[493] 0
x[494] 0
x[495] 0
x[496] 1
x[497] 1
x[498] 0
x[499] 0
x[500] 0
x[501] 0
x[502] 1
x[503] 1
x[504] 0
x[505] 0
x[506] 1
x[507] 0
x[508] 1
x[509] 1.7978491718689388e-07
x[510] 0
x[511] 9.9999982344365057e-01
x[512] 0
x[513] 0
x[514] 1
x[515] 0
x[516] 0
x[517] 0
x[518] 0
x[519] 9.9999988000000029e-01
x[520] 1
x[521] 0
x[522] 1
x[523] 0
x[524] 1
x[525] 1
x[526] 0
x[527] 1
x[528] 1
x[529] 1
x[530] 1
x[531] 0
x[532] 0
x[533] 1
x[534] 0
x[535] 1
x[536] 1
x[537] 0
x[538] 1
x[539] 1
x[540] 1
x[541] 1
x[542] 1
x[543] 0
x[544] 1
x[545] 1
x[546] 1
x[547] 1
x[548] 1
x[549] 1
x[550] 1
x[551] 1
x[552] 0
x[553] 0
x[554] 4.1973369804587428e-07
x[555] 9.9999964299911359e-01
x[556] 0
x[557] 1
x[558] 0
x[559] 1
x[560] 0
x[561] 1
x[562] 1
x[563] 1
x[564] 0.999999823333335
x[565] 0
x[566] 1
x[567] 1
x[568] 0
x[569] 1
x[570] 0
x[571] 1
x[572] 0
x[573] 1
x[574] 1
x[575] 1
x[576] 0
x[577] 1
x[578] 1
x[579] 1
x[580] 0
x[581] 0
x[582] 0
x[583] 1
x[584] 1
x[585] 1
x[586] 1
x[587] 9.9999982333333370e-01
x[588] 0
x[589] 0
x[590] 0
x[591] 1
x[592] 1
x[593] 1
x[594] 1
x[595] 1
x[596] 0
x[597] 0
x[598] 0
x[599] 1
x[600] 0
x[601] 1
x[602] 1
x[603] 1
x[604] 0
x[605] 1
x[606] 9.9999982333333348e-01
x[607] 0
x[608] 0
x[609] 1
x[610] 1
x[611] 1
x[612] 1
x[613] 9.9999988333333367e-01
x[614] 0
x[615] 1
x[616] 1
x[617] 1
x[618] 0
x[619] 1
x[620] 1
x[621] 9.9999988000000006e-01
x[622] 0
x[623] 0
x[624] 0
x[625] 1
x[626] 0
x[627] 0
x[628] 0
x[629] 0
x[630] 1
x[631] 1
x[632] 1
x[633] 0
x[634] 1
x[635] 1.1940833128473541e-07
x[636] 0
x[637] 0
x[638] 1
x[639] 1
x[640] 0
x[641] 1
x[642] 0
x[643] 9.9999988349179370e-01
x[644] 0
x[645] 0
x[646] 0
x[647] 0
x[648] 0
x[649] 1
x[650] 0
x[651] 1
x[652] 0
x[653] 1
x[654] 1
x[655] 0
x[656] 1
x[657] 1
x[658] 1
x[659] 0
x[660] 1
x[661] 0
x[662] 0
x[663] 1
x[664] 0
x[665] 1
x[666] 1
x[667] 0
x[668] 0
x[669] 0
x[670] 0
x[671] 0
x[672] 1
x[673] 1
x[674] 0
x[675] 0
x[676] 0
x[677] 1
x[678] 1
x[679] 0
x[680] 0
x[681] 1
x[682] 1
x[683] 0
x[684] 0
x[685] 1
x[686] 0
x[687] 0
x[688] 0
x[689] 9.9999964376707251e-01
x[690] 1
x[691] 0
x[692] 0
x[693] 0
x[694] 1
x[695] 0
x[696] 0
x[697] 1
x[698] 0
x[699] 1
x[700] 1
x[701] 1
x[702] 1
x[703] 1.1973891989336208e-07
x[704] 1
x[705] 1
x[706] 1
x[707] 0
x[708] 1
x[709] 0
x[710] 1
x[711] 1
x[712] 1
x[713] 1
x[714] 0
x[715] 0
x[716] 1
x[717] 0
x[718] 1
x[719] 0
x[720] 1.1987076131884915e-07
x[721] 1
x[722] 0
x[723] 0
x[724] 0
x[725] 0
x[726] 1
x[727] 1
x[728] 1
x[729] 0
x[730] 1
x[731] 0
x[732] 1
x[733] 0
x[734] 1
x[735] 0
x[736] 1
x[737] 0
x[738] 1
x[739] 0
x[740] 1
x[741] 0
x[742] 1.7976737220734416e-07
x[743] 1
x[744] 0
x[745] 0
x[746] 0
x[747] 0
x[748] 1
x[749] 0
x[750] 0
x[751] 0
x[752] 0
x[753] 0
x[754] 0
x[755] 0
x[756] 0
x[757] 1
x[758] 0
x[759] 0
x[760] 1
x[761] 0
x[762] 1
x[763] 0
x[764] 1
x[765] 0
x[766] 1
x[767] 1
x[768] 0
x[769] 1
x[770] 1
x[771] 1
x[772] 1
x[773] 1
x[774] 1
x[775] 1
x[776] 1
x[777] 1
x[778] 1
x[779] 1
x[780] 0
x[781] 1
x[782] 1
x[783] 0
x[784] 1
x[785] 0
x[786] 1
x[787] 1
x[788] 0
x[789] 0
x[790] 1
x[791] 1
x[792] 1
x[793] 0
x[794] 1
x[795] 0
x[796] 1
x[797] 1
x[798] 1
x[799] 1
x[800] 1
x[801] 0
x[802] 9.9999988333333345e-01
x[803] 9.9999982333333348e-01
x[804] 0
x[805] 1
x[806] 9.9999989199999983e-01
x[807] 0.999999883925002
x[808] 0
x[809] 1
x[810] 0
x[811] 0
x[812] 1
x[813] 0
x[814] 1
x[815] 0
x[816] 1.7986174360835449e-07
x[817] 0
x[818] 1
x[819] 1
x[820] 0
x[821] 0
x[822] 9.9999988368370851e-01
x[823] 0
x[824] 1
x[825] 0
x[826] 0
x[827] -1.7708634613456170e-07
x[828] 0
x[829] 0
x[830] 0
x[831] 0
x[832] 0
x[833] 1
x[834] 1
x[835] 1
x[836] 1
x[837] 0
x[838] 1
x[839] 0
x[840] 1
x[841] 0
x[842] 0
x[843] 1
x[844] 1
x[845] 9.9999988333333345e-01
x[846] 1
x[847] 0
x[848] 0
x[849] 0
x[850] 1
x[851] 1
x[852] 1
x[853] 0
x[854] 1
x[855] 0
x[856] 0
x[857] 0
x[858] 0
x[859] 1
x[860] 0
x[861] 0
x[862] 1
x[863] 0
x[864] 0
x[865] 9.9999988000000006e-01
x[866] 0
x[867] 0
x[868] 0
x[869] 1
x[870] 1
x[871] 9.9999985600000019e-01
x[872] 0
x[873] 0
x[874] 1
x[875] 1
x[876] 0
x[877] 1
x[878] 0
x[879] 1
x[880] 0
x[881] 0
x[882] 1
x[883] 1
x[884] 0
x[885] 1
x[886] 0
x[887] 1
x[888] 1
x[889] 1
x[890] 0
x[891] 1
x[892] 0
x[893] 1
x[894] 1
x[895] 1.7854445235165829e-07
x[896] 1
x[897] 0
x[898] 1.1985298022399203e-07
x[899] 0
x[900] 0
x[901] 2.3981946368842084e-07
x[902] 1
x[903] 0
x[904] 1
x[905] 1
x[906] 0
x[907] 0
x[908] 1
x[909] 1
x[910] 1
x[911] 1
x[912] 0
x[913] 1
x[914] 1
x[915] 0
x[916] 0
x[917] 1
x[918] 0
x[919] 1
x[920] 1
x[921] 0
x[922] 1
x[923] 1
x[924] 0
x[925] 1
x[926] 0
x[927] 0
x[928] 1
x[929] 1
x[930] 0
x[931] 0
x[932] 0
x[933] 1
x[934] 0
x[935] 1
x[936] 1
x[937] 0
x[938] 1
x[939] 0
x[940] 1.7950077794253255e-07
x[941] 0
x[942] 1
x[943] 1
x[944] 1
x[945] 1
x[946] 0
x[947] 1
x[948] 1
x[949] 0
x[950] 0
x[951] 0
x[952] 0
x[953] 0
x[954] 1
x[955] 0
x[956] 1
x[957] 1
x[958] 1
x[959] 0
x[960] 1
x[961] 1
x[962] 1
x[963] 1.1852614059420599e-07
x[964] 1
x[965] 9.9999964489897875e-01
x[966] 0
x[967] 1
x[968] 1
x[969] 1
x[970] 1
x[971] 0
x[972] 0
x[973] 0
x[974] 1
x[975] 1
x[976] 0
x[977] 1
x[978] 1
x[979] 1
x[980] 0
x[981] 1
x[982] 1
x[983] 1
x[984] 1
x[985] 0
x[986] 1
x[987] 1
x[988] 0
x[989] 0
x[990] 0
x[991] 1
x[992] 1
x[993] 1
x[994] 0
x[995] 0
x[996] 1
x[997] 1
x[998] 1
x[999] 0
